Copyright (C) 2013-2015, Filipe Brandao
Build (method = -2)
  #dp: 3946
  Step-3' Graph: 135 vertices and 1823 arcs (0.00s)
  Step-4' Graph: 91 vertices and 1735 arcs (0.00s)
  #V4/#V3 = 0.67
  #A4/#A3 = 0.95
Ready! (0.00s)
Optimize a model with 180 rows, 1736 columns and 5030 nonzeros
Found heuristic solution: objective 71
Presolve removed 43 rows and 69 columns
Presolve time: 0.02s
Presolved: 137 rows, 1667 columns, 4412 nonzeros
Variable types: 0 continuous, 1667 integer (1416 binary)
Optimize a model with 137 rows, 1667 columns and 4412 nonzeros
Presolved: 137 rows, 1667 columns, 4412 nonzeros

Root barrier log...

Ordering time: 0.00s

Barrier statistics:
 AA' NZ     : 2.131e+03
 Factor NZ  : 4.384e+03
 Factor Ops : 1.808e+05 (less than 1 second per iteration)
 Threads    : 1

                  Objective                Residual
Iter       Primal          Dual         Primal    Dual     Compl     Time
   0   1.58783195e+03 -2.62396946e+03  7.55e+03 2.31e-01  9.37e+00     0s
   1   3.28679992e+02 -8.05349428e+02  1.06e+03 7.77e-16  1.42e+00     0s
   2   9.18330776e+01 -2.22108738e+02  6.14e+01 7.77e-16  1.50e-01     0s
   3   6.00276007e+01  4.20120588e+00  7.84e+00 4.72e-16  2.21e-02     0s
   4   5.38551073e+01  2.94818662e+01  2.35e+00 3.64e-16  8.45e-03     0s
   5   5.08506074e+01  3.70237534e+01  1.14e+00 5.50e-16  4.55e-03     0s
   6   4.84071753e+01  4.20830277e+01  4.06e-01 4.13e-16  1.98e-03     0s
   7   4.74950019e+01  4.36615964e+01  1.76e-01 4.06e-16  1.18e-03     0s
   8   4.67225847e+01  4.53955905e+01  3.90e-02 3.29e-16  4.02e-04     0s
   9   4.64725491e+01  4.57935602e+01  1.66e-02 5.41e-16  2.05e-04     0s
  10   4.62841953e+01  4.61630719e+01  2.28e-03 3.33e-16  3.65e-05     0s
  11   4.62519911e+01  4.62241621e+01  8.22e-04 3.67e-16  8.41e-06     0s
  12   4.62344059e+01  4.62342715e+01  6.29e-14 4.88e-16  4.02e-08     0s
  13   4.62343750e+01  4.62343749e+01  4.17e-14 6.66e-16  4.02e-11     0s
  14   4.62343750e+01  4.62343750e+01  5.65e-14 7.77e-16  4.02e-14     0s

Barrier solved model in 14 iterations and 0.01 seconds
Optimal objective 4.62343750e+01


Root relaxation: objective 4.623438e+01, 315 iterations, 0.01 seconds

    Nodes    |    Current Node    |     Objective Bounds      |     Work
 Expl Unexpl |  Obj  Depth IntInf | Incumbent    BestBd   Gap | It/Node Time

     0     0   46.23438    0   24   71.00000   46.23438  34.9%     -    0s
H    0     0                      47.0000000   46.23438  1.63%     -    0s

Explored 0 nodes (481 simplex iterations) in 0.04 seconds
Thread count was 1 (of 4 available processors)

Optimal solution found (tolerance 0.00e+00)
Best objective 4.700000000000e+01, best bound 4.700000000000e+01, gap 0.0%
Preprocessing time: 0.00 seconds
Gurobi run time: 0.04 seconds
Total run time: 0.04 seconds
Objective: 47
Solution:
1 x [i=1, i=81]
1 x [i=2, i=76]
1 x [i=3, i=74]
1 x [i=4, i=72]
1 x [i=5, i=73]
2 x [i=6, i=71]
1 x [i=7, i=71]
1 x [i=8, i=77]
1 x [i=9, i=69]
1 x [i=10, i=68]
1 x [i=11, i=65]
1 x [i=12, i=63]
1 x [i=13, i=64]
1 x [i=14, i=62]
1 x [i=15, i=61]
1 x [i=16, i=60]
1 x [i=17, i=58]
1 x [i=18, i=54]
1 x [i=19, i=53]
1 x [i=20, i=52]
1 x [i=21]
1 x [i=22, i=55]
1 x [i=23, i=49]
1 x [i=24, i=50]
1 x [i=25, i=58]
1 x [i=26, i=58]
1 x [i=27, i=47]
1 x [i=27, i=48]
1 x [i=27, i=56]
1 x [i=28, i=83]
1 x [i=29, i=44]
1 x [i=30, i=46]
1 x [i=31, i=43]
1 x [i=32, i=40]
1 x [i=33, i=41]
1 x [i=34, i=37]
1 x [i=35, i=36]
1 x [i=38, i=53]
1 x [i=39, i=75, i=89]
1 x [i=42, i=45]
1 x [i=45, i=82, i=85]
1 x [i=51, i=78, i=86]
1 x [i=57, i=67, i=88]
1 x [i=59, i=66, i=87]
1 x [i=61, i=79, i=80]
1 x [i=67, i=70, i=84]
